unsat
(define-fun skel ((n373 Bool) (n371 Bool) (n379 Bool) (n376 Bool)) Bool (and (and (and (or (not n371) (not n373)) (or n371 n373)) n376) n379))
225.49user 0.13system 3:45.66elapsed 99%CPU (0avgtext+0avgdata 122632maxresident)k
0inputs+8outputs (0major+29782minor)pagefaults 0swaps
